p cnf 200 1110
-101 -88 0
-101 -96 0
-101 -20 0
-101 25 0
-101 -68 0
-101 -16 0
-101 -34 0
-101 -82 0
-101 -83 0
-101 64 0
101 88 96 20 -25 68 16 34 82 83 -64 0
-102 -51 0
-102 40 0
-102 91 0
-102 39 0
-102 -29 0
-102 41 0
-102 14 0
-102 38 0
-102 -32 0
-102 6 0
102 51 -40 -91 -39 29 -41 -14 -38 32 -6 0
-103 43 0
-103 53 0
-103 26 0
-103 -81 0
-103 -59 0
-103 23 0
-103 -75 0
-103 -48 0
-103 -13 0
-103 -68 0
103 -43 -53 -26 81 59 -23 75 48 13 68 0
-104 -75 0
-104 28 0
-104 -94 0
-104 89 0
-104 -51 0
-104 -98 0
-104 29 0
-104 -84 0
-104 11 0
-104 -86 0
104 75 -28 94 -89 51 98 -29 84 -11 86 0
-105 -52 0
-105 -3 0
-105 -69 0
-105 -98 0
-105 41 0
-105 -89 0
-105 59 0
-105 -35 0
-105 -93 0
-105 84 0
105 52 3 69 98 -41 89 -59 35 93 -84 0
-106 85 0
-106 -68 0
-106 4 0
-106 11 0
-106 -23 0
-106 -100 0
-106 2 0
-106 -57 0
-106 -5 0
-106 -56 0
106 -85 68 -4 -11 23 100 -2 57 5 56 0
-107 7 0
-107 8 0
-107 -73 0
-107 21 0
-107 59 0
-107 91 0
-107 -90 0
-107 -18 0
-107 -50 0
-107 -20 0
107 -7 -8 73 -21 -59 -91 90 18 50 20 0
-108 -44 0
-108 60 0
-108 -25 0
-108 -46 0
-108 -81 0
-108 7 0
-108 78 0
-108 99 0
-108 50 0
-108 55 0
108 44 -60 25 46 81 -7 -78 -99 -50 -55 0
-109 -47 0
-109 -6 0
-109 -79 0
-109 -36 0
-109 -100 0
-109 -65 0
-109 -9 0
-109 -73 0
-109 -44 0
-109 68 0
109 47 6 79 36 100 65 9 73 44 -68 0
-110 -39 0
-110 -69 0
-110 35 0
-110 52 0
-110 -48 0
-110 1 0
-110 95 0
-110 89 0
-110 -91 0
-110 -3 0
110 39 69 -35 -52 48 -1 -95 -89 91 3 0
101 102 103 104 105 106 107 108 109 110 0
-111 58 0
-111 -20 0
-111 -54 0
-111 77 0
-111 92 0
-111 -23 0
-111 -99 0
-111 -78 0
-111 75 0
-111 -6 0
111 -58 20 54 -77 -92 23 99 78 -75 6 0
-112 -69 0
-112 72 0
-112 -70 0
-112 -48 0
-112 -45 0
-112 49 0
-112 77 0
-112 -71 0
-112 -54 0
-112 -86 0
112 69 -72 70 48 45 -49 -77 71 54 86 0
-113 93 0
-113 55 0
-113 44 0
-113 56 0
-113 -77 0
-113 57 0
-113 -67 0
-113 82 0
-113 -66 0
-113 49 0
113 -93 -55 -44 -56 77 -57 67 -82 66 -49 0
-114 40 0
-114 20 0
-114 -48 0
-114 -88 0
-114 51 0
-114 17 0
-114 -66 0
-114 -34 0
-114 11 0
-114 49 0
114 -40 -20 48 88 -51 -17 66 34 -11 -49 0
-115 -17 0
-115 40 0
-115 -59 0
-115 -63 0
-115 90 0
-115 10 0
-115 -58 0
-115 100 0
-115 -82 0
-115 -34 0
115 17 -40 59 63 -90 -10 58 -100 82 34 0
-116 16 0
-116 -77 0
-116 -57 0
-116 -46 0
-116 94 0
-116 -53 0
-116 -3 0
-116 10 0
-116 90 0
-116 28 0
116 -16 77 57 46 -94 53 3 -10 -90 -28 0
-117 -72 0
-117 95 0
-117 -68 0
-117 92 0
-117 -13 0
-117 -69 0
-117 -77 0
-117 51 0
-117 20 0
-117 65 0
117 72 -95 68 -92 13 69 77 -51 -20 -65 0
-118 31 0
-118 -83 0
-118 19 0
-118 55 0
-118 -98 0
-118 12 0
-118 -25 0
-118 40 0
-118 5 0
-118 81 0
118 -31 83 -19 -55 98 -12 25 -40 -5 -81 0
-119 71 0
-119 44 0
-119 62 0
-119 27 0
-119 47 0
-119 -58 0
-119 -65 0
-119 19 0
-119 25 0
-119 -6 0
119 -71 -44 -62 -27 -47 58 65 -19 -25 6 0
-120 -17 0
-120 44 0
-120 24 0
-120 38 0
-120 -61 0
-120 -2 0
-120 -69 0
-120 -85 0
-120 -56 0
-120 -28 0
120 17 -44 -24 -38 61 2 69 85 56 28 0
111 112 113 114 115 116 117 118 119 120 0
-121 60 0
-121 67 0
-121 -73 0
-121 78 0
-121 -27 0
-121 -17 0
-121 14 0
-121 -64 0
-121 70 0
-121 -1 0
121 -60 -67 73 -78 27 17 -14 64 -70 1 0
-122 72 0
-122 -12 0
-122 19 0
-122 -11 0
-122 55 0
-122 20 0
-122 -29 0
-122 -43 0
-122 -21 0
-122 -36 0
122 -72 12 -19 11 -55 -20 29 43 21 36 0
-123 -39 0
-123 -11 0
-123 18 0
-123 36 0
-123 -76 0
-123 26 0
-123 60 0
-123 -88 0
-123 21 0
-123 -74 0
123 39 11 -18 -36 76 -26 -60 88 -21 74 0
-124 -91 0
-124 22 0
-124 -96 0
-124 99 0
-124 -33 0
-124 -44 0
-124 -12 0
-124 41 0
-124 -66 0
-124 -46 0
124 91 -22 96 -99 33 44 12 -41 66 46 0
-125 -94 0
-125 -17 0
-125 -72 0
-125 -99 0
-125 -73 0
-125 -24 0
-125 -20 0
-125 85 0
-125 -86 0
-125 90 0
125 94 17 72 99 73 24 20 -85 86 -90 0
-126 -99 0
-126 79 0
-126 -89 0
-126 72 0
-126 10 0
-126 -94 0
-126 77 0
-126 -6 0
-126 74 0
-126 73 0
126 99 -79 89 -72 -10 94 -77 6 -74 -73 0
-127 -79 0
-127 -30 0
-127 -52 0
-127 -99 0
-127 -95 0
-127 -18 0
-127 -13 0
-127 -44 0
-127 -61 0
-127 -53 0
127 79 30 52 99 95 18 13 44 61 53 0
-128 78 0
-128 75 0
-128 -81 0
-128 62 0
-128 -45 0
-128 -49 0
-128 -2 0
-128 46 0
-128 -30 0
-128 4 0
128 -78 -75 81 -62 45 49 2 -46 30 -4 0
-129 43 0
-129 -46 0
-129 15 0
-129 29 0
-129 -49 0
-129 -42 0
-129 63 0
-129 -10 0
-129 17 0
-129 91 0
129 -43 46 -15 -29 49 42 -63 10 -17 -91 0
-130 -18 0
-130 79 0
-130 4 0
-130 -58 0
-130 -10 0
-130 -17 0
-130 -65 0
-130 -14 0
-130 -39 0
-130 6 0
130 18 -79 -4 58 10 17 65 14 39 -6 0
121 122 123 124 125 126 127 128 129 130 0
-131 -43 0
-131 -81 0
-131 5 0
-131 -76 0
-131 19 0
-131 79 0
-131 37 0
-131 89 0
-131 20 0
-131 17 0
131 43 81 -5 76 -19 -79 -37 -89 -20 -17 0
-132 83 0
-132 74 0
-132 5 0
-132 95 0
-132 19 0
-132 73 0
-132 -10 0
-132 11 0
-132 47 0
-132 -3 0
132 -83 -74 -5 -95 -19 -73 10 -11 -47 3 0
-133 47 0
-133 -86 0
-133 40 0
-133 99 0
-133 -13 0
-133 -69 0
-133 62 0
-133 52 0
-133 35 0
-133 97 0
133 -47 86 -40 -99 13 69 -62 -52 -35 -97 0
-134 -63 0
-134 46 0
-134 -90 0
-134 -58 0
-134 15 0
-134 81 0
-134 -100 0
-134 93 0
-134 -5 0
-134 83 0
134 63 -46 90 58 -15 -81 100 -93 5 -83 0
-135 36 0
-135 -41 0
-135 64 0
-135 42 0
-135 -81 0
-135 21 0
-135 -50 0
-135 4 0
-135 14 0
-135 -96 0
135 -36 41 -64 -42 81 -21 50 -4 -14 96 0
-136 -25 0
-136 73 0
-136 -92 0
-136 35 0
-136 -12 0
-136 95 0
-136 39 0
-136 -6 0
-136 45 0
-136 85 0
136 25 -73 92 -35 12 -95 -39 6 -45 -85 0
-137 -6 0
-137 94 0
-137 -22 0
-137 59 0
-137 75 0
-137 -31 0
-137 -43 0
-137 35 0
-137 5 0
-137 -55 0
137 6 -94 22 -59 -75 31 43 -35 -5 55 0
-138 17 0
-138 39 0
-138 -72 0
-138 -10 0
-138 -18 0
-138 -60 0
-138 -24 0
-138 36 0
-138 -14 0
-138 -12 0
138 -17 -39 72 10 18 60 24 -36 14 12 0
-139 -61 0
-139 -53 0
-139 83 0
-139 72 0
-139 87 0
-139 -7 0
-139 -13 0
-139 30 0
-139 -20 0
-139 58 0
139 61 53 -83 -72 -87 7 13 -30 20 -58 0
-140 -42 0
-140 -40 0
-140 89 0
-140 -39 0
-140 18 0
-140 90 0
-140 96 0
-140 -5 0
-140 -60 0
-140 35 0
140 42 40 -89 39 -18 -90 -96 5 60 -35 0
131 132 133 134 135 136 137 138 139 140 0
-141 -66 0
-141 72 0
-141 -39 0
-141 -82 0
-141 -98 0
-141 68 0
-141 93 0
-141 -56 0
-141 43 0
-141 74 0
141 66 -72 39 82 98 -68 -93 56 -43 -74 0
-142 7 0
-142 23 0
-142 -77 0
-142 -28 0
-142 49 0
-142 20 0
-142 87 0
-142 -17 0
-142 60 0
-142 93 0
142 -7 -23 77 28 -49 -20 -87 17 -60 -93 0
-143 99 0
-143 53 0
-143 -26 0
-143 -55 0
-143 -32 0
-143 -16 0
-143 -23 0
-143 20 0
-143 -11 0
-143 70 0
143 -99 -53 26 55 32 16 23 -20 11 -70 0
-144 -1 0
-144 -21 0
-144 98 0
-144 -13 0
-144 92 0
-144 17 0
-144 -83 0
-144 -89 0
-144 -82 0
-144 -27 0
144 1 21 -98 13 -92 -17 83 89 82 27 0
-145 49 0
-145 -22 0
-145 7 0
-145 -59 0
-145 37 0
-145 26 0
-145 38 0
-145 53 0
-145 82 0
-145 -96 0
145 -49 22 -7 59 -37 -26 -38 -53 -82 96 0
-146 -6 0
-146 -71 0
-146 66 0
-146 -77 0
-146 69 0
-146 91 0
-146 -26 0
-146 -78 0
-146 -28 0
-146 79 0
146 6 71 -66 77 -69 -91 26 78 28 -79 0
-147 -81 0
-147 47 0
-147 -64 0
-147 39 0
-147 89 0
-147 70 0
-147 -46 0
-147 -2 0
-147 27 0
-147 21 0
147 81 -47 64 -39 -89 -70 46 2 -27 -21 0
-148 -40 0
-148 88 0
-148 31 0
-148 -35 0
-148 77 0
-148 -92 0
-148 -21 0
-148 -55 0
-148 72 0
-148 -19 0
148 40 -88 -31 35 -77 92 21 55 -72 19 0
-149 -85 0
-149 51 0
-149 73 0
-149 -35 0
-149 -87 0
-149 1 0
-149 -50 0
-149 -41 0
-149 19 0
-149 -97 0
149 85 -51 -73 35 87 -1 50 41 -19 97 0
-150 38 0
-150 -71 0
-150 -86 0
-150 -45 0
-150 73 0
-150 -42 0
-150 19 0
-150 39 0
-150 -22 0
-150 -61 0
150 -38 71 86 45 -73 42 -19 -39 22 61 0
141 142 143 144 145 146 147 148 149 150 0
-151 94 0
-151 99 0
-151 43 0
-151 -7 0
-151 -76 0
-151 -69 0
-151 8 0
-151 -41 0
-151 53 0
-151 80 0
151 -94 -99 -43 7 76 69 -8 41 -53 -80 0
-152 53 0
-152 -63 0
-152 -57 0
-152 49 0
-152 90 0
-152 23 0
-152 -48 0
-152 -36 0
-152 -78 0
-152 4 0
152 -53 63 57 -49 -90 -23 48 36 78 -4 0
-153 -43 0
-153 6 0
-153 39 0
-153 13 0
-153 -93 0
-153 64 0
-153 -1 0
-153 99 0
-153 -47 0
-153 38 0
153 43 -6 -39 -13 93 -64 1 -99 47 -38 0
-154 -87 0
-154 -12 0
-154 80 0
-154 -81 0
-154 95 0
-154 28 0
-154 5 0
-154 -20 0
-154 -37 0
-154 15 0
154 87 12 -80 81 -95 -28 -5 20 37 -15 0
-155 -25 0
-155 -89 0
-155 -13 0
-155 -80 0
-155 -98 0
-155 -53 0
-155 -28 0
-155 -59 0
-155 94 0
-155 -52 0
155 25 89 13 80 98 53 28 59 -94 52 0
-156 -19 0
-156 43 0
-156 -62 0
-156 89 0
-156 -87 0
-156 69 0
-156 5 0
-156 -44 0
-156 17 0
-156 -59 0
156 19 -43 62 -89 87 -69 -5 44 -17 59 0
-157 77 0
-157 42 0
-157 -55 0
-157 -33 0
-157 17 0
-157 26 0
-157 -37 0
-157 -66 0
-157 97 0
-157 -91 0
157 -77 -42 55 33 -17 -26 37 66 -97 91 0
-158 40 0
-158 -24 0
-158 1 0
-158 -35 0
-158 -30 0
-158 7 0
-158 86 0
-158 53 0
-158 39 0
-158 17 0
158 -40 24 -1 35 30 -7 -86 -53 -39 -17 0
-159 -14 0
-159 -51 0
-159 37 0
-159 69 0
-159 87 0
-159 -53 0
-159 -73 0
-159 -67 0
-159 65 0
-159 -3 0
159 14 51 -37 -69 -87 53 73 67 -65 3 0
-160 -99 0
-160 1 0
-160 67 0
-160 -98 0
-160 57 0
-160 52 0
-160 93 0
-160 75 0
-160 55 0
-160 -7 0
160 99 -1 -67 98 -57 -52 -93 -75 -55 7 0
151 152 153 154 155 156 157 158 159 160 0
-161 -72 0
-161 -28 0
-161 64 0
-161 61 0
-161 -100 0
-161 -18 0
-161 87 0
-161 53 0
-161 49 0
-161 -37 0
161 72 28 -64 -61 100 18 -87 -53 -49 37 0
-162 -56 0
-162 83 0
-162 35 0
-162 -30 0
-162 -23 0
-162 26 0
-162 78 0
-162 -81 0
-162 50 0
-162 -58 0
162 56 -83 -35 30 23 -26 -78 81 -50 58 0
-163 2 0
-163 43 0
-163 28 0
-163 -90 0
-163 -55 0
-163 20 0
-163 -58 0
-163 25 0
-163 34 0
-163 61 0
163 -2 -43 -28 90 55 -20 58 -25 -34 -61 0
-164 -88 0
-164 -52 0
-164 78 0
-164 -90 0
-164 -15 0
-164 14 0
-164 -99 0
-164 -76 0
-164 13 0
-164 -98 0
164 88 52 -78 90 15 -14 99 76 -13 98 0
-165 2 0
-165 -12 0
-165 59 0
-165 -52 0
-165 -14 0
-165 -1 0
-165 -38 0
-165 -13 0
-165 87 0
-165 -62 0
165 -2 12 -59 52 14 1 38 13 -87 62 0
-166 -42 0
-166 6 0
-166 47 0
-166 -73 0
-166 -54 0
-166 -20 0
-166 -87 0
-166 77 0
-166 61 0
-166 -81 0
166 42 -6 -47 73 54 20 87 -77 -61 81 0
-167 -82 0
-167 8 0
-167 9 0
-167 32 0
-167 55 0
-167 -37 0
-167 -83 0
-167 -5 0
-167 45 0
-167 -87 0
167 82 -8 -9 -32 -55 37 83 5 -45 87 0
-168 89 0
-168 37 0
-168 -97 0
-168 11 0
-168 -51 0
-168 -80 0
-168 -20 0
-168 -45 0
-168 50 0
-168 -17 0
168 -89 -37 97 -11 51 80 20 45 -50 17 0
-169 72 0
-169 39 0
-169 51 0
-169 -48 0
-169 -78 0
-169 44 0
-169 4 0
-169 -52 0
-169 -7 0
-169 42 0
169 -72 -39 -51 48 78 -44 -4 52 7 -42 0
-170 -41 0
-170 60 0
-170 66 0
-170 12 0
-170 -88 0
-170 29 0
-170 -39 0
-170 -8 0
-170 -45 0
-170 -18 0
170 41 -60 -66 -12 88 -29 39 8 45 18 0
161 162 163 164 165 166 167 168 169 170 0
-171 -95 0
-171 28 0
-171 -86 0
-171 99 0
-171 4 0
-171 -62 0
-171 36 0
-171 58 0
-171 72 0
-171 -5 0
171 95 -28 86 -99 -4 62 -36 -58 -72 5 0
-172 29 0
-172 -9 0
-172 94 0
-172 -56 0
-172 -67 0
-172 42 0
-172 -71 0
-172 65 0
-172 -95 0
-172 63 0
172 -29 9 -94 56 67 -42 71 -65 95 -63 0
-173 -78 0
-173 -59 0
-173 -77 0
-173 -73 0
-173 -40 0
-173 -4 0
-173 75 0
-173 13 0
-173 -80 0
-173 -22 0
173 78 59 77 73 40 4 -75 -13 80 22 0
-174 -62 0
-174 15 0
-174 56 0
-174 29 0
-174 -72 0
-174 33 0
-174 -49 0
-174 -31 0
-174 44 0
-174 91 0
174 62 -15 -56 -29 72 -33 49 31 -44 -91 0
-175 -14 0
-175 54 0
-175 -25 0
-175 -18 0
-175 2 0
-175 33 0
-175 -15 0
-175 -92 0
-175 -85 0
-175 -55 0
175 14 -54 25 18 -2 -33 15 92 85 55 0
-176 -3 0
-176 -98 0
-176 59 0
-176 -18 0
-176 -30 0
-176 49 0
-176 -36 0
-176 17 0
-176 -34 0
-176 -48 0
176 3 98 -59 18 30 -49 36 -17 34 48 0
-177 -20 0
-177 45 0
-177 7 0
-177 15 0
-177 99 0
-177 -19 0
-177 47 0
-177 -65 0
-177 82 0
-177 92 0
177 20 -45 -7 -15 -99 19 -47 65 -82 -92 0
-178 78 0
-178 -67 0
-178 88 0
-178 -19 0
-178 18 0
-178 98 0
-178 -5 0
-178 -66 0
-178 100 0
-178 64 0
178 -78 67 -88 19 -18 -98 5 66 -100 -64 0
-179 -42 0
-179 -73 0
-179 -64 0
-179 35 0
-179 -82 0
-179 -25 0
-179 -28 0
-179 -68 0
-179 -67 0
-179 -58 0
179 42 73 64 -35 82 25 28 68 67 58 0
-180 70 0
-180 -12 0
-180 34 0
-180 -100 0
-180 -68 0
-180 -82 0
-180 -46 0
-180 -57 0
-180 -67 0
-180 -83 0
180 -70 12 -34 100 68 82 46 57 67 83 0
171 172 173 174 175 176 177 178 179 180 0
-181 6 0
-181 -5 0
-181 69 0
-181 -57 0
-181 -97 0
-181 -83 0
-181 -36 0
-181 34 0
-181 16 0
-181 -59 0
181 -6 5 -69 57 97 83 36 -34 -16 59 0
-182 -79 0
-182 -57 0
-182 -15 0
-182 12 0
-182 59 0
-182 -41 0
-182 30 0
-182 72 0
-182 -90 0
-182 42 0
182 79 57 15 -12 -59 41 -30 -72 90 -42 0
-183 82 0
-183 67 0
-183 1 0
-183 63 0
-183 -86 0
-183 -17 0
-183 55 0
-183 41 0
-183 -90 0
-183 43 0
183 -82 -67 -1 -63 86 17 -55 -41 90 -43 0
-184 -12 0
-184 -40 0
-184 58 0
-184 -85 0
-184 75 0
-184 93 0
-184 24 0
-184 -28 0
-184 -47 0
-184 -46 0
184 12 40 -58 85 -75 -93 -24 28 47 46 0
-185 9 0
-185 -14 0
-185 82 0
-185 -35 0
-185 -15 0
-185 -65 0
-185 -4 0
-185 -24 0
-185 18 0
-185 -59 0
185 -9 14 -82 35 15 65 4 24 -18 59 0
-186 45 0
-186 65 0
-186 -82 0
-186 40 0
-186 -22 0
-186 -28 0
-186 -2 0
-186 -25 0
-186 20 0
-186 -61 0
186 -45 -65 82 -40 22 28 2 25 -20 61 0
-187 48 0
-187 -51 0
-187 100 0
-187 17 0
-187 18 0
-187 78 0
-187 -27 0
-187 82 0
-187 49 0
-187 -98 0
187 -48 51 -100 -17 -18 -78 27 -82 -49 98 0
-188 -38 0
-188 84 0
-188 -97 0
-188 4 0
-188 31 0
-188 11 0
-188 -99 0
-188 9 0
-188 14 0
-188 50 0
188 38 -84 97 -4 -31 -11 99 -9 -14 -50 0
-189 -81 0
-189 69 0
-189 57 0
-189 61 0
-189 97 0
-189 -9 0
-189 40 0
-189 43 0
-189 38 0
-189 98 0
189 81 -69 -57 -61 -97 9 -40 -43 -38 -98 0
-190 -73 0
-190 36 0
-190 25 0
-190 -71 0
-190 -72 0
-190 -20 0
-190 16 0
-190 46 0
-190 7 0
-190 17 0
190 73 -36 -25 71 72 20 -16 -46 -7 -17 0
181 182 183 184 185 186 187 188 189 190 0
-191 8 0
-191 -88 0
-191 -19 0
-191 72 0
-191 47 0
-191 -38 0
-191 76 0
-191 -22 0
-191 53 0
-191 -59 0
191 -8 88 19 -72 -47 38 -76 22 -53 59 0
-192 69 0
-192 -73 0
-192 -6 0
-192 21 0
-192 -34 0
-192 12 0
-192 91 0
-192 -56 0
-192 -13 0
-192 86 0
192 -69 73 6 -21 34 -12 -91 56 13 -86 0
-193 98 0
-193 61 0
-193 33 0
-193 97 0
-193 18 0
-193 -44 0
-193 -51 0
-193 -38 0
-193 7 0
-193 71 0
193 -98 -61 -33 -97 -18 44 51 38 -7 -71 0
-194 43 0
-194 25 0
-194 6 0
-194 -60 0
-194 -7 0
-194 90 0
-194 78 0
-194 63 0
-194 24 0
-194 18 0
194 -43 -25 -6 60 7 -90 -78 -63 -24 -18 0
-195 -56 0
-195 -12 0
-195 -38 0
-195 78 0
-195 -7 0
-195 -85 0
-195 -16 0
-195 -31 0
-195 -60 0
-195 13 0
195 56 12 38 -78 7 85 16 31 60 -13 0
-196 -85 0
-196 -32 0
-196 -63 0
-196 -14 0
-196 80 0
-196 45 0
-196 100 0
-196 56 0
-196 72 0
-196 6 0
196 85 32 63 14 -80 -45 -100 -56 -72 -6 0
-197 -66 0
-197 -18 0
-197 -16 0
-197 -89 0
-197 -86 0
-197 96 0
-197 87 0
-197 -67 0
-197 -41 0
-197 -71 0
197 66 18 16 89 86 -96 -87 67 41 71 0
-198 -81 0
-198 15 0
-198 53 0
-198 -90 0
-198 -88 0
-198 77 0
-198 -8 0
-198 84 0
-198 51 0
-198 -52 0
198 81 -15 -53 90 88 -77 8 -84 -51 52 0
-199 -28 0
-199 59 0
-199 -26 0
-199 -48 0
-199 52 0
-199 6 0
-199 -99 0
-199 -76 0
-199 -85 0
-199 35 0
199 28 -59 26 48 -52 -6 99 76 85 -35 0
-200 18 0
-200 -24 0
-200 44 0
-200 14 0
-200 -2 0
-200 -79 0
-200 50 0
-200 -100 0
-200 61 0
-200 54 0
200 -18 24 -44 -14 2 79 -50 100 -61 -54 0
191 192 193 194 195 196 197 198 199 200 0
